125
336
62
912
418
459
616
170
1020
640
210
893
648
425
817
288
196
312
168
180
35
988
615
155
96
222
104
704
66
800
440
290
782
432
175
420
434
588
418
432
855
170
255
82
240
47
74
260
387
608
700
390
364
138
175
1040
336
589
96
37
135
528
132
255
160
203
705
396
325
516
544
980
494
196
495
646
572
656
30
864
518
78
836
660
350
117
261
552
630
250
294
279
539
494
351
352
102
153
320
540
